\ENCODING=ISO-8859-1
\Problem name: IloCplex

Minimize
 obj: x76 + x77 + x78
Subject To
 c1:   - x62 + x79 <= 0
 c2:   - x61 + x79 <= 0
 c3:   - x61 - x62 + x79 >= -1
 c4:   - x63 + x80 <= 0
 c5:   - x61 + x80 <= 0
 c6:   - x61 - x63 + x80 >= -1
 c7:   - x64 + x81 <= 0
 c8:   - x61 + x81 <= 0
 c9:   - x61 - x64 + x81 >= -1
 c10:  - x65 + x82 <= 0
 c11:  - x61 + x82 <= 0
 c12:  - x61 - x65 + x82 >= -1
 c13:  - x63 + x83 <= 0
 c14:  - x62 + x83 <= 0
 c15:  - x62 - x63 + x83 >= -1
 c16:  - x64 + x84 <= 0
 c17:  - x62 + x84 <= 0
 c18:  - x62 - x64 + x84 >= -1
 c19:  - x65 + x85 <= 0
 c20:  - x62 + x85 <= 0
 c21:  - x62 - x65 + x85 >= -1
 c22:  - x64 + x86 <= 0
 c23:  - x63 + x86 <= 0
 c24:  - x63 - x64 + x86 >= -1
 c25:  - x65 + x87 <= 0
 c26:  - x63 + x87 <= 0
 c27:  - x63 - x65 + x87 >= -1
 c28:  - x65 + x88 <= 0
 c29:  - x64 + x88 <= 0
 c30:  - x64 - x65 + x88 >= -1
 c31:  - x67 + x89 <= 0
 c32:  - x66 + x89 <= 0
 c33:  - x66 - x67 + x89 >= -1
 c34:  - x68 + x90 <= 0
 c35:  - x66 + x90 <= 0
 c36:  - x66 - x68 + x90 >= -1
 c37:  - x69 + x91 <= 0
 c38:  - x66 + x91 <= 0
 c39:  - x66 - x69 + x91 >= -1
 c40:  - x70 + x92 <= 0
 c41:  - x66 + x92 <= 0
 c42:  - x66 - x70 + x92 >= -1
 c43:  - x68 + x93 <= 0
 c44:  - x67 + x93 <= 0
 c45:  - x67 - x68 + x93 >= -1
 c46:  - x69 + x94 <= 0
 c47:  - x67 + x94 <= 0
 c48:  - x67 - x69 + x94 >= -1
 c49:  - x70 + x95 <= 0
 c50:  - x67 + x95 <= 0
 c51:  - x67 - x70 + x95 >= -1
 c52:  - x69 + x96 <= 0
 c53:  - x68 + x96 <= 0
 c54:  - x68 - x69 + x96 >= -1
 c55:  - x70 + x97 <= 0
 c56:  - x68 + x97 <= 0
 c57:  - x68 - x70 + x97 >= -1
 c58:  - x70 + x98 <= 0
 c59:  - x69 + x98 <= 0
 c60:  - x69 - x70 + x98 >= -1
 c61:  - x72 + x99 <= 0
 c62:  - x71 + x99 <= 0
 c63:  - x71 - x72 + x99 >= -1
 c64:  - x73 + x100 <= 0
 c65:  - x71 + x100 <= 0
 c66:  - x71 - x73 + x100 >= -1
 c67:  - x74 + x101 <= 0
 c68:  - x71 + x101 <= 0
 c69:  - x71 - x74 + x101 >= -1
 c70:  - x75 + x102 <= 0
 c71:  - x71 + x102 <= 0
 c72:  - x71 - x75 + x102 >= -1
 c73:  - x73 + x103 <= 0
 c74:  - x72 + x103 <= 0
 c75:  - x72 - x73 + x103 >= -1
 c76:  - x74 + x104 <= 0
 c77:  - x72 + x104 <= 0
 c78:  - x72 - x74 + x104 >= -1
 c79:  - x75 + x105 <= 0
 c80:  - x72 + x105 <= 0
 c81:  - x72 - x75 + x105 >= -1
 c82:  - x74 + x106 <= 0
 c83:  - x73 + x106 <= 0
 c84:  - x73 - x74 + x106 >= -1
 c85:  - x75 + x107 <= 0
 c86:  - x73 + x107 <= 0
 c87:  - x73 - x75 + x107 >= -1
 c88:  - x75 + x108 <= 0
 c89:  - x74 + x108 <= 0
 c90:  - x74 - x75 + x108 >= -1
 c91:  x76 - x79 >= 0
 c92:  x76 - x80 >= 0
 c93:  x76 - x81 >= 0
 c94:  x76 - x82 >= 0
 c95:  x76 - x83 >= 0
 c96:  x76 - x84 >= 0
 c97:  x76 - x85 >= 0
 c98:  x76 - x86 >= 0
 c99:  x76 - x87 >= 0
 c100: x76 - x88 >= 0
 c101: x76 - x79 - x80 - x81 - x82 - x83 - x84 - x85 - x86 - x87 - x88 <= 0
 c102: x77 - x89 >= 0
 c103: x77 - x90 >= 0
 c104: x77 - x91 >= 0
 c105: x77 - x92 >= 0
 c106: x77 - x93 >= 0
 c107: x77 - x94 >= 0
 c108: x77 - x95 >= 0
 c109: x77 - x96 >= 0
 c110: x77 - x97 >= 0
 c111: x77 - x98 >= 0
 c112: x77 - x89 - x90 - x91 - x92 - x93 - x94 - x95 - x96 - x97 - x98 <= 0
 c113: x78 - x99 >= 0
 c114: x78 - x100 >= 0
 c115: x78 - x101 >= 0
 c116: x78 - x102 >= 0
 c117: x78 - x103 >= 0
 c118: x78 - x104 >= 0
 c119: x78 - x105 >= 0
 c120: x78 - x106 >= 0
 c121: x78 - x107 >= 0
 c122: x78 - x108 >= 0
 c123: x78 - x99 - x100 - x101 - x102 - x103 - x104 - x105 - x106 - x107 - x108
       <= 0
 c124: - x1 + x61 >= 0
 c125: - x2 + x61 >= 0
 c126: - x3 + x61 >= 0
 c127: - x4 + x61 >= 0
 c128: - x5 + x61 >= 0
 c129: - x6 + x61 >= 0
 c130: - x7 + x61 >= 0
 c131: x61 >= 0
 c132: x61 >= 0
 c133: x61 >= 0
 c134: x61 >= 0
 c135: x61 >= 0
 c136: - x1 - x2 - x3 - x4 - x5 - x6 - x7 + x61 <= 0
 c137: - x13 + x62 >= 0
 c138: - x14 + x62 >= 0
 c139: - x15 + x62 >= 0
 c140: - x16 + x62 >= 0
 c141: - x17 + x62 >= 0
 c142: - x18 + x62 >= 0
 c143: - x19 + x62 >= 0
 c144: x62 >= 0
 c145: x62 >= 0
 c146: x62 >= 0
 c147: x62 >= 0
 c148: x62 >= 0
 c149: - x13 - x14 - x15 - x16 - x17 - x18 - x19 + x62 <= 0
 c150: - x25 + x63 >= 0
 c151: - x26 + x63 >= 0
 c152: - x27 + x63 >= 0
 c153: - x28 + x63 >= 0
 c154: - x29 + x63 >= 0
 c155: - x30 + x63 >= 0
 c156: - x31 + x63 >= 0
 c157: x63 >= 0
 c158: x63 >= 0
 c159: x63 >= 0
 c160: x63 >= 0
 c161: x63 >= 0
 c162: - x25 - x26 - x27 - x28 - x29 - x30 - x31 + x63 <= 0
 c163: - x37 + x64 >= 0
 c164: - x38 + x64 >= 0
 c165: - x39 + x64 >= 0
 c166: - x40 + x64 >= 0
 c167: - x41 + x64 >= 0
 c168: - x42 + x64 >= 0
 c169: - x43 + x64 >= 0
 c170: x64 >= 0
 c171: x64 >= 0
 c172: x64 >= 0
 c173: x64 >= 0
 c174: x64 >= 0
 c175: - x37 - x38 - x39 - x40 - x41 - x42 - x43 + x64 <= 0
 c176: - x49 + x65 >= 0
 c177: - x50 + x65 >= 0
 c178: - x51 + x65 >= 0
 c179: - x52 + x65 >= 0
 c180: - x53 + x65 >= 0
 c181: - x54 + x65 >= 0
 c182: - x55 + x65 >= 0
 c183: x65 >= 0
 c184: x65 >= 0
 c185: x65 >= 0
 c186: x65 >= 0
 c187: x65 >= 0
 c188: - x49 - x50 - x51 - x52 - x53 - x54 - x55 + x65 <= 0
 c189: x66 >= 0
 c190: x66 >= 0
 c191: x66 >= 0
 c192: x66 >= 0
 c193: x66 >= 0
 c194: x66 >= 0
 c195: x66 >= 0
 c196: - x8 + x66 >= 0
 c197: x66 >= 0
 c198: - x10 + x66 >= 0
 c199: x66 >= 0
 c200: x66 >= 0
 c201: - x8 - x10 + x66 <= 0
 c202: x67 >= 0
 c203: x67 >= 0
 c204: x67 >= 0
 c205: x67 >= 0
 c206: x67 >= 0
 c207: x67 >= 0
 c208: x67 >= 0
 c209: - x20 + x67 >= 0
 c210: x67 >= 0
 c211: - x22 + x67 >= 0
 c212: x67 >= 0
 c213: x67 >= 0
 c214: - x20 - x22 + x67 <= 0
 c215: x68 >= 0
 c216: x68 >= 0
 c217: x68 >= 0
 c218: x68 >= 0
 c219: x68 >= 0
 c220: x68 >= 0
 c221: x68 >= 0
 c222: - x32 + x68 >= 0
 c223: x68 >= 0
 c224: - x34 + x68 >= 0
 c225: x68 >= 0
 c226: x68 >= 0
 c227: - x32 - x34 + x68 <= 0
 c228: x69 >= 0
 c229: x69 >= 0
 c230: x69 >= 0
 c231: x69 >= 0
 c232: x69 >= 0
 c233: x69 >= 0
 c234: x69 >= 0
 c235: - x44 + x69 >= 0
 c236: x69 >= 0
 c237: - x46 + x69 >= 0
 c238: x69 >= 0
 c239: x69 >= 0
 c240: - x44 - x46 + x69 <= 0
 c241: x70 >= 0
 c242: x70 >= 0
 c243: x70 >= 0
 c244: x70 >= 0
 c245: x70 >= 0
 c246: x70 >= 0
 c247: x70 >= 0
 c248: - x56 + x70 >= 0
 c249: x70 >= 0
 c250: - x58 + x70 >= 0
 c251: x70 >= 0
 c252: x70 >= 0
 c253: - x56 - x58 + x70 <= 0
 c254: x71 >= 0
 c255: x71 >= 0
 c256: x71 >= 0
 c257: x71 >= 0
 c258: x71 >= 0
 c259: x71 >= 0
 c260: x71 >= 0
 c261: x71 >= 0
 c262: - x9 + x71 >= 0
 c263: - x10 + x71 >= 0
 c264: - x11 + x71 >= 0
 c265: - x12 + x71 >= 0
 c266: - x9 - x10 - x11 - x12 + x71 <= 0
 c267: x72 >= 0
 c268: x72 >= 0
 c269: x72 >= 0
 c270: x72 >= 0
 c271: x72 >= 0
 c272: x72 >= 0
 c273: x72 >= 0
 c274: x72 >= 0
 c275: - x21 + x72 >= 0
 c276: - x22 + x72 >= 0
 c277: - x23 + x72 >= 0
 c278: - x24 + x72 >= 0
 c279: - x21 - x22 - x23 - x24 + x72 <= 0
 c280: x73 >= 0
 c281: x73 >= 0
 c282: x73 >= 0
 c283: x73 >= 0
 c284: x73 >= 0
 c285: x73 >= 0
 c286: x73 >= 0
 c287: x73 >= 0
 c288: - x33 + x73 >= 0
 c289: - x34 + x73 >= 0
 c290: - x35 + x73 >= 0
 c291: - x36 + x73 >= 0
 c292: - x33 - x34 - x35 - x36 + x73 <= 0
 c293: x74 >= 0
 c294: x74 >= 0
 c295: x74 >= 0
 c296: x74 >= 0
 c297: x74 >= 0
 c298: x74 >= 0
 c299: x74 >= 0
 c300: x74 >= 0
 c301: - x45 + x74 >= 0
 c302: - x46 + x74 >= 0
 c303: - x47 + x74 >= 0
 c304: - x48 + x74 >= 0
 c305: - x45 - x46 - x47 - x48 + x74 <= 0
 c306: x75 >= 0
 c307: x75 >= 0
 c308: x75 >= 0
 c309: x75 >= 0
 c310: x75 >= 0
 c311: x75 >= 0
 c312: x75 >= 0
 c313: x75 >= 0
 c314: - x57 + x75 >= 0
 c315: - x58 + x75 >= 0
 c316: - x59 + x75 >= 0
 c317: - x60 + x75 >= 0
 c318: - x57 - x58 - x59 - x60 + x75 <= 0
 c319: 30 x61 + 30 x66 + 30 x71 <= 30
 c320: 30 x62 + 30 x67 + 30 x72 <= 30
 c321: 30 x63 + 30 x68 + 30 x73 <= 30
 c322: 30 x64 + 30 x69 + 30 x74 <= 30
 c323: 30 x65 + 30 x70 + 30 x75 <= 30
 c324: x1 + x13 + x25 + x37 + x49  = 1
 c325: x2 + x14 + x26 + x38 + x50  = 1
 c326: x3 + x15 + x27 + x39 + x51  = 1
 c327: x4 + x16 + x28 + x40 + x52  = 1
 c328: x5 + x17 + x29 + x41 + x53  = 1
 c329: x6 + x18 + x30 + x42 + x54  = 1
 c330: x7 + x19 + x31 + x43 + x55  = 1
 c331: x8 + x20 + x32 + x44 + x56  = 1
 c332: x9 + x21 + x33 + x45 + x57  = 1
 c333: x10 + x22 + x34 + x46 + x58  = 1
 c334: x11 + x23 + x35 + x47 + x59  = 1
 c335: x12 + x24 + x36 + x48 + x60  = 1
 c336: x1 + x9 <= 1
 c337: x2 + x10 <= 1
 c338: x3 <= 1
 c339: x4 + x11 <= 1
 c340: x5 + x12 <= 1
 c341: x6 <= 1
 c342: x1 + x9 <= 1
 c343: x2 + x10 <= 1
 c344: x3 <= 1
 c345: x4 + x11 <= 1
 c346: x5 + x12 <= 1
 c347: x6 <= 1
 c348: x7 + x8 <= 1
 c349: x7 + x8 <= 1
 c350: <= 1
 c351: x13 + x21 <= 1
 c352: x14 + x22 <= 1
 c353: x15 <= 1
 c354: x16 + x23 <= 1
 c355: x17 + x24 <= 1
 c356: x18 <= 1
 c357: x13 + x21 <= 1
 c358: x14 + x22 <= 1
 c359: x15 <= 1
 c360: x16 + x23 <= 1
 c361: x17 + x24 <= 1
 c362: x18 <= 1
 c363: x19 + x20 <= 1
 c364: x19 + x20 <= 1
 c365: <= 1
 c366: x25 + x33 <= 1
 c367: x26 + x34 <= 1
 c368: x27 <= 1
 c369: x28 + x35 <= 1
 c370: x29 + x36 <= 1
 c371: x30 <= 1
 c372: x25 + x33 <= 1
 c373: x26 + x34 <= 1
 c374: x27 <= 1
 c375: x28 + x35 <= 1
 c376: x29 + x36 <= 1
 c377: x30 <= 1
 c378: x31 + x32 <= 1
 c379: x31 + x32 <= 1
 c380: <= 1
 c381: x37 + x45 <= 1
 c382: x38 + x46 <= 1
 c383: x39 <= 1
 c384: x40 + x47 <= 1
 c385: x41 + x48 <= 1
 c386: x42 <= 1
 c387: x37 + x45 <= 1
 c388: x38 + x46 <= 1
 c389: x39 <= 1
 c390: x40 + x47 <= 1
 c391: x41 + x48 <= 1
 c392: x42 <= 1
 c393: x43 + x44 <= 1
 c394: x43 + x44 <= 1
 c395: <= 1
 c396: x49 + x57 <= 1
 c397: x50 + x58 <= 1
 c398: x51 <= 1
 c399: x52 + x59 <= 1
 c400: x53 + x60 <= 1
 c401: x54 <= 1
 c402: x49 + x57 <= 1
 c403: x50 + x58 <= 1
 c404: x51 <= 1
 c405: x52 + x59 <= 1
 c406: x53 + x60 <= 1
 c407: x54 <= 1
 c408: x55 + x56 <= 1
 c409: x55 + x56 <= 1
 c410: <= 1
Bounds
 0 <= x1 <= 1
 0 <= x2 <= 1
 0 <= x3 <= 1
 0 <= x4 <= 1
 0 <= x5 <= 1
 0 <= x6 <= 1
 0 <= x7 <= 1
 0 <= x8 <= 1
 0 <= x9 <= 1
 0 <= x10 <= 1
 0 <= x11 <= 1
 0 <= x12 <= 1
 0 <= x13 <= 1
 0 <= x14 <= 1
 0 <= x15 <= 1
 0 <= x16 <= 1
 0 <= x17 <= 1
 0 <= x18 <= 1
 0 <= x19 <= 1
 0 <= x20 <= 1
 0 <= x21 <= 1
 0 <= x22 <= 1
 0 <= x23 <= 1
 0 <= x24 <= 1
 0 <= x25 <= 1
 0 <= x26 <= 1
 0 <= x27 <= 1
 0 <= x28 <= 1
 0 <= x29 <= 1
 0 <= x30 <= 1
 0 <= x31 <= 1
 0 <= x32 <= 1
 0 <= x33 <= 1
 0 <= x34 <= 1
 0 <= x35 <= 1
 0 <= x36 <= 1
 0 <= x37 <= 1
 0 <= x38 <= 1
 0 <= x39 <= 1
 0 <= x40 <= 1
 0 <= x41 <= 1
 0 <= x42 <= 1
 0 <= x43 <= 1
 0 <= x44 <= 1
 0 <= x45 <= 1
 0 <= x46 <= 1
 0 <= x47 <= 1
 0 <= x48 <= 1
 0 <= x49 <= 1
 0 <= x50 <= 1
 0 <= x51 <= 1
 0 <= x52 <= 1
 0 <= x53 <= 1
 0 <= x54 <= 1
 0 <= x55 <= 1
 0 <= x56 <= 1
 0 <= x57 <= 1
 0 <= x58 <= 1
 0 <= x59 <= 1
 0 <= x60 <= 1
 0 <= x61 <= 1
 0 <= x62 <= 1
 0 <= x63 <= 1
 0 <= x64 <= 1
 0 <= x65 <= 1
 0 <= x66 <= 1
 0 <= x67 <= 1
 0 <= x68 <= 1
 0 <= x69 <= 1
 0 <= x70 <= 1
 0 <= x71 <= 1
 0 <= x72 <= 1
 0 <= x73 <= 1
 0 <= x74 <= 1
 0 <= x75 <= 1
 0 <= x76 <= 1
 0 <= x77 <= 1
 0 <= x78 <= 1
 0 <= x79 <= 1
 0 <= x80 <= 1
 0 <= x81 <= 1
 0 <= x82 <= 1
 0 <= x83 <= 1
 0 <= x84 <= 1
 0 <= x85 <= 1
 0 <= x86 <= 1
 0 <= x87 <= 1
 0 <= x88 <= 1
 0 <= x89 <= 1
 0 <= x90 <= 1
 0 <= x91 <= 1
 0 <= x92 <= 1
 0 <= x93 <= 1
 0 <= x94 <= 1
 0 <= x95 <= 1
 0 <= x96 <= 1
 0 <= x97 <= 1
 0 <= x98 <= 1
 0 <= x99 <= 1
 0 <= x100 <= 1
 0 <= x101 <= 1
 0 <= x102 <= 1
 0 <= x103 <= 1
 0 <= x104 <= 1
 0 <= x105 <= 1
 0 <= x106 <= 1
 0 <= x107 <= 1
 0 <= x108 <= 1
Binaries
 x1  x2  x3  x4  x5  x6  x7  x8  x9  x10  x11  x12  x13  x14  x15  x16  x17 
 x18  x19  x20  x21  x22  x23  x24  x25  x26  x27  x28  x29  x30  x31  x32 
 x33  x34  x35  x36  x37  x38  x39  x40  x41  x42  x43  x44  x45  x46  x47 
 x48  x49  x50  x51  x52  x53  x54  x55  x56  x57  x58  x59  x60  x61  x62 
 x63  x64  x65  x66  x67  x68  x69  x70  x71  x72  x73  x74  x75  x76  x77 
 x78  x79  x80  x81  x82  x83  x84  x85  x86  x87  x88  x89  x90  x91  x92 
 x93  x94  x95  x96  x97  x98  x99  x100  x101  x102  x103  x104  x105  x106 
 x107  x108 
End
